words_easy_train/words_819_UNSAT.qaiger
aag 71 16 0 1 55
16
18
6
22
28
30
32
12
20
2
26
24
4
10
8
14
142
34 32 12
36 32 10
38 32 8
40 33 9
42 41 39
44 31 7
46 30 6
48 29 5
50 28 4
52 26 2
54 53 51
56 55 49
58 57 47
60 59 45
62 60 42
64 63 39
66 33 11
68 67 37
70 68 65
72 71 37
74 33 13
76 75 35
78 76 73
80 79 35
82 32 14
84 33 15
86 85 83
88 86 81
90 87 80
92 91 89
94 77 72
96 95 79
98 61 43
100 99 63
102 101 53
104 69 64
106 105 71
108 27 3
110 47 45
112 110 51
114 113 109
116 114 107
118 111 49
120 119 116
122 120 102
124 122 97
126 124 93
128 89 83
130 33 16
132 32 17
134 133 131
136 134 128
138 135 129
140 139 137
142 141 126
i0 1 x2[7]
i1 2 y2[0]
i2 1 x2[2]
i3 2 y2[2]
i4 2 y2[5]
i5 2 y2[6]
i6 2 y2[7]
i7 1 x2[5]
i8 2 y2[1]
i9 1 x2[0]
i10 2 y2[4]
i11 2 y2[3]
i12 1 x2[1]
i13 1 x2[4]
i14 1 x2[3]
i15 1 x2[6]
o0 bool[0]
c
simplified
  ==
    add
      1 x2
      >> 4
        2 y2
    1
