words_easy_train/words_819_UNSAT.qaiger.qdimacs
p cnf 71 166
a 1 2 3 4 5 6 7 8 0
e 9 10 11 12 13 14 15 16 17 18 19 20 21 22 23 24 25 26 27 28 29 30 31 32 33 34 35 36 37 38 39 40 41 42 43 44 45 46 47 48 49 50 51 52 53 54 55 56 57 58 59 60 61 62 63 64 65 66 67 68 69 70 71 0
-16 -6 17 0
16 -17 0
6 -17 0
-16 -5 18 0
16 -18 0
5 -18 0
-16 -4 19 0
16 -19 0
4 -19 0
16 4 20 0
-16 -20 0
-4 -20 0
20 19 21 0
-20 -21 0
-19 -21 0
15 3 22 0
-15 -22 0
-3 -22 0
-15 -3 23 0
15 -23 0
3 -23 0
14 2 24 0
-14 -24 0
-2 -24 0
-14 -2 25 0
14 -25 0
2 -25 0
-13 -1 26 0
13 -26 0
1 -26 0
26 25 27 0
-26 -27 0
-25 -27 0
27 24 28 0
-27 -28 0
-24 -28 0
28 23 29 0
-28 -29 0
-23 -29 0
29 22 30 0
-29 -30 0
-22 -30 0
-30 -21 31 0
30 -31 0
21 -31 0
31 19 32 0
-31 -32 0
-19 -32 0
16 5 33 0
-16 -33 0
-5 -33 0
33 18 34 0
-33 -34 0
-18 -34 0
-34 32 35 0
34 -35 0
-32 -35 0
35 18 36 0
-35 -36 0
-18 -36 0
16 6 37 0
-16 -37 0
-6 -37 0
37 17 38 0
-37 -38 0
-17 -38 0
-38 36 39 0
38 -39 0
-36 -39 0
39 17 40 0
-39 -40 0
-17 -40 0
-16 -7 41 0
16 -41 0
7 -41 0
16 7 42 0
-16 -42 0
-7 -42 0
42 41 43 0
-42 -43 0
-41 -43 0
-43 40 44 0
43 -44 0
-40 -44 0
43 -40 45 0
-43 -45 0
40 -45 0
45 44 46 0
-45 -46 0
-44 -46 0
38 -36 47 0
-38 -47 0
36 -47 0
47 39 48 0
-47 -48 0
-39 -48 0
30 21 49 0
-30 -49 0
-21 -49 0
49 31 50 0
-49 -50 0
-31 -50 0
50 26 51 0
-50 -51 0
-26 -51 0
34 -32 52 0
-34 -52 0
32 -52 0
52 35 53 0
-52 -53 0
-35 -53 0
13 1 54 0
-13 -54 0
-1 -54 0
23 22 55 0
-23 -55 0
-22 -55 0
-55 25 56 0
55 -56 0
-25 -56 0
56 54 57 0
-56 -57 0
-54 -57 0
-57 53 58 0
57 -58 0
-53 -58 0
55 24 59 0
-55 -59 0
-24 -59 0
59 -58 60 0
-59 -60 0
58 -60 0
-60 -51 61 0
60 -61 0
51 -61 0
-61 48 62 0
61 -62 0
-48 -62 0
-62 46 63 0
62 -63 0
-46 -63 0
44 41 64 0
-44 -64 0
-41 -64 0
16 -8 65 0
-16 -65 0
8 -65 0
-16 8 66 0
16 -66 0
-8 -66 0
66 65 67 0
-66 -67 0
-65 -67 0
-67 -64 68 0
67 -68 0
64 -68 0
67 64 69 0
-67 -69 0
-64 -69 0
69 68 70 0
-69 -70 0
-68 -70 0
70 -63 71 0
-70 -71 0
63 -71 0
71 0
